172
0 88 26 8 82 9 93 41 128 168 
66 158 164 108 90 170 153 38 37 72 
149 121 92 107 79 167 85 65 28 74 
136 68 32 48 127 21 120 154 106 117 
169 81 36 15 53 78 60 160 97 101 
162 16 166 73 99 122 141 27 3 113 
159 52 4 143 43 112 29 22 105 104 
126 6 19 100 7 49 34 144 18 71 
156 1 58 150 89 145 138 118 31 14 
17 129 142 131 2 86 77 132 5 24 
134 59 125 57 96 163 55 50 11 62 
130 56 139 151 67 75 80 84 110 140 
70 54 47 44 116 137 102 95 147 98 
25 69 148 30 161 87 124 20 10 63 
64 157 35 165 51 171 39 12 146 133 
155 114 135 33 45 111 103 123 109 13 
42 152 119 61 46 23 83 94 115 91 
76 40 
